m = 4;
l = [20, 15, 10, 8];

n = 6;
s = [2, 5, 3, 4, 2, 1];

D =[| 0, 3, 5, 4, 6, 7, 5
    | 3, 0, 4, 5, 3, 6, 4
    | 5, 4, 0, 2, 5, 4, 7
    | 4, 5, 2, 0, 4, 5, 6
    | 6, 3, 5, 4, 0, 3, 4
    | 7, 6, 4, 5, 3, 0, 2
    | 5, 4, 7, 6, 4, 2, 0 |]

% (search 1) DEFAULT SEARCH
% [| 13 | 11 | 10 | 12 |]
% ==========
% %%%mzn-stat: failures=524849
% %%%mzn-stat: nSolutions=3
% Finished in 12s 936msec.

% (search 2) DOMWDEG + RANDOM SEARCH
% [| 12 | 13 | 12 | 8 |]
% ==========
%%%mzn-stat: failures=22716
%%%mzn-stat: nSolutions=3
% Finished in 1s 344msec.

% (search 2) DOMWDEG + MIN SEARCH
% [| 12 | 13 | 11 | 10 |]
% ==========
% %%%mzn-stat: failures=5429
% %%%mzn-stat: nSolutions=3
% Finished in 598msec.

% (search 2) FIRST FAIL + RANDOM SEARCH
% [| 13 | 12 | 8 | 12 |]
% ==========
% %%%mzn-stat: failures=20605
% %%%mzn-stat: nSolutions=6
% Finished in 1s 16msec.

% (search 2) FIRST FAIL + MIN SEARCH
% [| 8 | 12 | 13 | 12 |]
% ==========
% %%%mzn-stat: failures=12575
% %%%mzn-stat: nSolutions=4
% Finished in 886msec.

% (search 2) INPUT ORDER + RANDOM SEARCH
% [| 13 | 12 | 8 | 12 |]
% ==========
% %%%mzn-stat: failures=15262
% %%%mzn-stat: nSolutions=6
% Finished in 864msec.

% (search 2) INPUT ORDER + MIN SEARCH
% [| 8 | 12 | 13 | 12 |]
% ==========
% %%%mzn-stat: failures=10098
% %%%mzn-stat: nSolutions=3
% Finished in 694msec.